(set-logic QF_SLIA)
(declare-const result String)
(declare-const attack String)
(declare-const prefix RegLan)
(declare-const infix RegLan)
(declare-const postfix RegLan)
(declare-const postfixs String)

(assert (str.in_re attack (re.++ prefix ((_ re.loop 5000 5000) infix) postfix)))
(assert (= prefix 
    (str.to_re "")
))
(assert (= infix 
          (re.++  (str.to_re "\u{56}") (re.++  (str.to_re "\u{6f}") (re.++  (str.to_re "\u{64}") (re.++  (str.to_re "\u{61}") (re.++  (str.to_re "\u{66}") (re.++  (str.to_re "\u{6f}") (re.++  (str.to_re "\u{6e}") (re.++  (str.to_re "\u{65}")  (str.to_re "\u{20}")))))))))
))
(assert (= postfix 
         (re.++  (str.to_re "\u{0a}") (re.++  (str.to_re "\u{40}")  (str.to_re "\u{40}")))
))
(assert (str.in_re postfixs postfix))
(assert (>= (str.len postfixs) 1))
(assert (= result (str.++ attack postfixs)))
(check-sat)
(get-model)